3 32 1 10
1 4 7 5 14 17 9 16 6 3 19 12 15 8 20 4 7 15 4 18 20 10 2 8 16 5 19 18 15 9 12 8 
5.9 2.4 4.73 11.02 1.07 9.11 6.06 7.62 8.05 8.06 3.98 14.35 15.51 6.29 15.98 15.4 4.63 10.56 9.6 3.33 14.12 12.28 9.34 7.46 5.63 6.21 13.53 7.04 8.46 7.38 9.91 14.93 
8 8 8 8 8 8 8 8 8 8 8 8 8 8 8 8 8 8 8 8 8 8 8 8 8 8 8 8 8 8 8 8 
12.11 7.37 4.61 4.16 10.98 14.18 4.26 12.56 10.44 9.51 4.11 7.39 12.74 11.12 5.56 14.39 15.37 3.36 2.77 12.38 11.43 9.77 13.68 8.89 13.94 13.78 8.32 15.95 8.79 9.77 4.71 0.39 
1 1 1 1 1 1 1 1 1 1 1 1 1 1 1 1 1 1 1 1 1 1 1 1 1 1 1 1 1 1 1 1 
1 1 1 1 1 1 1 1 1 1 1 1 1 1 1 1 1 1 1 1 1 1 1 1 1 1 1 1 1 1 1 1 
1 1 1 1 1 1 1 1 1 1 1 1 1 1 1 1 1 1 1 1 1 1 1 1 1 1 1 1 1 1 1 1 
0.01 0.01 0.01 0.01 0.01 0.01 0.01 0.01 0.01 0.01 0.01 0.01 0.01 0.01 0.01 0.01 0.01 0.01 0.01 0.01 0.01 0.01 0.01 0.01 0.01 0.01 0.01 0.01 0.01 0.01 0.01 0.01 
0.02 0.02 0.02 0.02 0.02 0.02 0.02 0.02 0.02 0.02 0.02 0.02 0.02 0.02 0.02 0.02 0.02 0.02 0.02 0.02 0.02 0.02 0.02 0.02 0.02 0.02 0.02 0.02 0.02 0.02 0.02 0.02 
1 1 1 1 1 1 1 1 1 1 1 1 1 1 1 1 1 1 1 1 1 1 1 1 1 1 1 1 1 1 1 1 
